47557.97,58.13,70.5
40407.02,68.42,82.97
43318.83,63.82,77.39
49403.57,55.96,67.86
42627.03,64.86,78.65
48778.16,56.68,68.73
42634.36,64.84,78.64
56814.96,48.66,59.01
48819.94,56.63,68.67
47520.13,58.18,70.55
44593.49,62.0,75.18
44688.52,61.86,75.02
41317.05,66.91,81.14
44174.43,62.58,75.89
52703.01,52.46,63.61
48682.56,56.79,68.87
53811.24,51.38,62.3
52615.94,52.54,63.72
54470.35,50.75,61.55
41762.72,66.2,80.28
